c Reduced graph for GEOM70b_3 generated by Cyril Grelier
p edge 65 454
e 1 2
e 1 3
e 1 4
e 1 5
e 1 6
e 1 7
e 1 8
e 1 9
e 1 10
e 1 11
e 1 12
e 1 13
e 1 14
e 1 18
e 1 19
e 1 20
e 1 21
e 1 22
e 1 24
e 1 29
e 1 30
e 1 34
e 1 36
e 1 37
e 2 6
e 2 7
e 2 9
e 2 10
e 2 11
e 2 12
e 2 14
e 2 17
e 2 18
e 2 19
e 2 20
e 2 25
e 2 27
e 2 31
e 2 35
e 2 42
e 2 43
e 2 44
e 2 48
e 2 51
e 3 4
e 3 5
e 3 6
e 3 7
e 3 8
e 3 13
e 3 21
e 3 22
e 3 24
e 3 26
e 3 29
e 3 30
e 3 34
e 3 39
e 3 41
e 3 47
e 3 55
e 3 56
e 3 60
e 4 5
e 4 6
e 4 7
e 4 8
e 4 11
e 4 13
e 4 20
e 4 21
e 4 22
e 4 24
e 4 26
e 4 29
e 4 30
e 4 34
e 4 36
e 4 37
e 4 39
e 4 41
e 5 6
e 5 13
e 5 21
e 5 22
e 5 24
e 5 26
e 5 29
e 5 30
e 5 34
e 5 36
e 5 37
e 5 39
e 5 41
e 5 47
e 5 55
e 5 56
e 5 60
e 6 7
e 6 8
e 6 9
e 6 11
e 6 12
e 6 13
e 6 14
e 6 15
e 6 20
e 6 21
e 6 22
e 6 24
e 6 29
e 6 30
e 6 34
e 7 8
e 7 9
e 7 10
e 7 11
e 7 12
e 7 13
e 7 14
e 7 15
e 7 16
e 7 17
e 7 18
e 7 19
e 7 20
e 7 21
e 7 24
e 8 9
e 8 11
e 8 12
e 8 14
e 8 15
e 8 16
e 8 20
e 8 21
e 8 23
e 8 24
e 8 32
e 8 34
e 8 38
e 8 56
e 9 10
e 9 11
e 9 12
e 9 14
e 9 17
e 9 18
e 9 19
e 9 20
e 9 25
e 9 27
e 9 28
e 9 33
e 9 35
e 9 40
e 10 11
e 10 12
e 10 14
e 10 17
e 10 18
e 10 19
e 10 20
e 10 25
e 10 27
e 10 31
e 10 35
e 10 42
e 10 43
e 10 48
e 10 51
e 11 12
e 11 13
e 11 14
e 11 15
e 11 16
e 11 17
e 11 18
e 11 19
e 11 20
e 11 25
e 11 27
e 12 14
e 12 15
e 12 16
e 12 17
e 12 20
e 12 23
e 12 27
e 12 28
e 12 33
e 12 38
e 12 40
e 13 21
e 13 22
e 13 24
e 13 26
e 13 29
e 13 30
e 13 36
e 13 37
e 13 39
e 13 41
e 13 47
e 14 17
e 14 18
e 14 19
e 14 20
e 14 25
e 14 27
e 14 28
e 14 33
e 14 35
e 15 16
e 15 20
e 15 21
e 15 23
e 15 24
e 15 32
e 15 34
e 15 38
e 15 49
e 15 52
e 15 53
e 15 57
e 15 58
e 16 20
e 16 23
e 16 28
e 16 32
e 16 38
e 16 40
e 16 45
e 16 46
e 16 49
e 16 50
e 16 52
e 16 57
e 16 58
e 17 18
e 17 19
e 17 25
e 17 31
e 17 35
e 17 42
e 17 43
e 17 44
e 17 48
e 17 51
e 18 19
e 18 25
e 18 31
e 18 36
e 18 42
e 18 43
e 18 44
e 18 48
e 18 51
e 19 25
e 19 31
e 19 36
e 19 42
e 19 43
e 19 44
e 19 48
e 19 51
e 20 23
e 20 27
e 20 28
e 20 38
e 21 22
e 21 24
e 21 26
e 21 32
e 21 34
e 21 38
e 21 53
e 21 56
e 22 24
e 22 26
e 22 34
e 22 41
e 22 47
e 22 53
e 22 55
e 22 56
e 22 60
e 23 28
e 23 32
e 23 38
e 23 45
e 23 46
e 23 49
e 23 50
e 23 52
e 23 53
e 23 57
e 23 58
e 24 26
e 24 32
e 24 34
e 24 53
e 24 56
e 25 31
e 25 35
e 25 42
e 25 43
e 25 44
e 25 48
e 25 51
e 26 30
e 26 34
e 26 39
e 26 41
e 26 47
e 26 55
e 26 56
e 26 60
e 27 28
e 27 33
e 27 35
e 27 40
e 27 45
e 27 46
e 27 54
e 27 61
e 28 33
e 28 40
e 28 45
e 28 46
e 28 50
e 28 54
e 28 59
e 28 63
e 29 30
e 29 31
e 29 36
e 29 37
e 29 39
e 29 41
e 29 44
e 29 47
e 29 55
e 30 31
e 30 36
e 30 37
e 30 39
e 30 41
e 30 47
e 30 55
e 31 36
e 31 37
e 31 42
e 31 43
e 31 44
e 31 48
e 32 34
e 32 38
e 32 49
e 32 52
e 32 53
e 32 56
e 32 57
e 32 58
e 33 35
e 33 40
e 33 45
e 33 46
e 33 54
e 33 59
e 33 61
e 33 62
e 33 64
e 34 53
e 34 56
e 35 42
e 35 51
e 35 54
e 35 62
e 35 65
e 36 37
e 36 39
e 36 43
e 36 44
e 37 39
e 37 41
e 37 43
e 37 44
e 37 47
e 38 49
e 38 52
e 38 53
e 38 57
e 38 58
e 39 41
e 39 47
e 39 55
e 39 60
e 40 45
e 40 46
e 40 50
e 40 54
e 40 59
e 40 61
e 40 63
e 41 47
e 41 55
e 41 60
e 42 43
e 42 44
e 42 48
e 42 51
e 43 44
e 43 48
e 44 48
e 45 46
e 45 49
e 45 50
e 45 54
e 45 59
e 45 63
e 46 49
e 46 50
e 46 52
e 46 59
e 46 63
e 47 55
e 47 60
e 48 51
e 49 50
e 49 52
e 49 57
e 49 58
e 50 52
e 50 57
e 50 59
e 50 63
e 51 65
e 52 57
e 52 58
e 53 56
e 53 58
e 54 59
e 54 61
e 54 62
e 54 64
e 55 60
e 57 58
e 59 63
e 61 62
e 61 64
e 62 64
e 62 65
e 64 65
